c FILE /home/rafael/Documents/HappySet/MIHS/inputs/happygen/output/graph_d_regular_k20_p0.4_v100_20241127_084135.txt
c SOURCE This is a d-regular graph formed for the happy graph colouring problem.
c DESCRIPTION It was generated using the problem generator of Rhyd Lewis
c
c GRAPH STATS
c Seed                             = -430784055
c Number of Nodes                  = 100
c Number of colours k              = 20
c Number of pre-assignments        = 40
c Degree of all vertices           = 6
c Density                          = 0.0606061
c 
c The degrees of nodes 1 to 100, respectively, are as follows 
c [6, 6, 6, 6, 6, 6, 6, 6, 6, 6, 6, 6, 6, 6, 6, 6, 6, 6, 6, 6, 6, 6, 6, 6, 6, 6, 
c  6, 6, 6, 6, 6, 6, 6, 6, 6, 6, 6, 6, 6, 6, 6, 6, 6, 6, 6, 6, 6, 6, 6, 6, 6, 
c  6, 6, 6, 6, 6, 6, 6, 6, 6, 6, 6, 6, 6, 6, 6, 6, 6, 6, 6, 6, 6, 6, 6, 6, 6, 
c  6, 6, 6, 6, 6, 6, 6, 6, 6, 6, 6, 6, 6, 6, 6, 6, 6, 6, 6, 6, 6, 6, 6, 6] 
c  
p edge 100 300 20
e 1 7
e 1 17
e 1 18
e 1 32
e 1 72
e 1 98
e 2 20
e 2 21
e 2 51
e 2 79
e 2 97
e 2 98
e 3 5
e 3 50
e 3 60
e 3 77
e 3 89
e 3 96
e 4 17
e 4 18
e 4 56
e 4 87
e 4 89
e 4 92
e 5 15
e 5 19
e 5 56
e 5 85
e 5 90
e 6 13
e 6 28
e 6 82
e 6 92
e 6 94
e 6 100
e 7 23
e 7 35
e 7 46
e 7 55
e 7 59
e 8 11
e 8 21
e 8 39
e 8 75
e 8 84
e 8 86
e 9 11
e 9 12
e 9 46
e 9 64
e 9 87
e 9 93
e 10 17
e 10 44
e 10 45
e 10 51
e 10 81
e 10 96
e 11 14
e 11 40
e 11 85
e 11 86
e 12 27
e 12 30
e 12 31
e 12 46
e 12 83
e 13 30
e 13 33
e 13 34
e 13 53
e 13 64
e 14 24
e 14 27
e 14 31
e 14 42
e 14 48
e 15 28
e 15 72
e 15 74
e 15 89
e 15 98
e 16 25
e 16 46
e 16 60
e 16 63
e 16 73
e 16 82
e 17 37
e 17 69
e 17 88
e 18 39
e 18 42
e 18 48
e 18 53
e 19 29
e 19 43
e 19 90
e 19 91
e 19 94
e 20 29
e 20 35
e 20 74
e 20 77
e 20 84
e 21 30
e 21 34
e 21 52
e 21 74
e 22 32
e 22 64
e 22 75
e 22 78
e 22 85
e 22 91
e 23 27
e 23 43
e 23 70
e 23 78
e 23 81
e 24 62
e 24 65
e 24 68
e 24 74
e 24 84
e 25 31
e 25 41
e 25 57
e 25 70
e 25 71
e 26 28
e 26 32
e 26 38
e 26 55
e 26 57
e 26 73
e 27 28
e 27 36
e 27 60
e 28 50
e 28 80
e 29 71
e 29 72
e 29 78
e 29 99
e 30 45
e 30 59
e 30 81
e 31 33
e 31 70
e 31 99
e 32 54
e 32 63
e 32 100
e 33 37
e 33 44
e 33 54
e 33 89
e 34 58
e 34 80
e 34 85
e 34 91
e 35 48
e 35 71
e 35 92
e 35 100
e 36 51
e 36 67
e 36 71
e 36 76
e 36 96
e 37 46
e 37 52
e 37 70
e 37 99
e 38 48
e 38 67
e 38 79
e 38 91
e 38 95
e 39 76
e 39 82
e 39 87
e 39 88
e 40 52
e 40 56
e 40 61
e 40 64
e 40 79
e 41 43
e 41 45
e 41 49
e 41 65
e 41 81
e 42 44
e 42 67
e 42 97
e 42 99
e 43 47
e 43 87
e 43 90
e 44 50
e 44 75
e 44 99
e 45 58
e 45 62
e 45 90
e 46 75
e 47 65
e 47 73
e 47 74
e 47 83
e 47 97
e 48 61
e 48 95
e 49 54
e 49 63
e 49 82
e 49 88
e 49 95
e 50 52
e 50 62
e 50 96
e 51 72
e 51 80
e 51 95
e 52 62
e 52 68
e 53 63
e 53 67
e 53 77
e 53 100
e 54 55
e 54 61
e 54 84
e 55 71
e 55 86
e 55 89
e 56 60
e 56 65
e 56 80
e 57 60
e 57 67
e 57 77
e 57 84
e 58 66
e 58 72
e 58 85
e 58 98
e 59 73
e 59 76
e 59 77
e 59 83
e 60 93
e 61 69
e 61 76
e 61 83
e 62 82
e 62 91
e 63 66
e 63 94
e 64 86
e 64 88
e 65 66
e 65 96
e 66 86
e 66 94
e 66 99
e 67 81
e 68 80
e 68 87
e 68 90
e 68 92
e 69 73
e 69 82
e 69 89
e 69 93
e 70 94
e 70 98
e 71 77
e 72 78
e 73 94
e 74 93
e 75 78
e 75 91
e 76 85
e 76 93
e 78 100
e 79 87
e 79 88
e 79 97
e 80 95
e 81 86
e 83 92
e 83 100
e 84 92
e 88 95
e 90 98
e 93 97
e 96 97
n 1 1
n 3 11
n 7 1
n 8 12
n 9 7
n 10 18
n 13 9
n 15 4
n 18 1
n 20 5
n 21 12
n 22 13
n 24 10
n 26 8
n 27 17
n 31 9
n 41 14
n 47 9
n 50 11
n 54 12
n 56 2
n 58 13
n 59 1
n 61 12
n 63 15
n 67 6
n 68 10
n 71 20
n 82 19
n 85 13
n 86 12
n 88 3
n 90 10
n 91 13
n 92 10
n 94 15
n 95 3
n 97 9
n 99 9
n 100 16
